************************************************************************
file with basedata            : mm13_.bas
initial value random generator: 1378115193
************************************************************************
projects                      :  1
jobs (incl. supersource/sink ):  12
horizon                       :  79
RESOURCES
  - renewable                 :  2   R
  - nonrenewable              :  2   N
  - doubly constrained        :  0   D
************************************************************************
PROJECT INFORMATION:
pronr.  #jobs rel.date duedate tardcost  MPM-Time
    1     10      0       10        4       10
************************************************************************
PRECEDENCE RELATIONS:
jobnr.    #modes  #successors   successors
   0        1          3           1   2   3
   1        3          2           4   5
   2        3          1           8
   3        3          3           6   7   9
   4        3          1           9
   5        3          2           8   9
   6        3          2           8  10
   7        3          1          10
   8        3          1          11
   9        3          1          11
  10        3          1          11
  11        1          0        
************************************************************************
REQUESTS/DURATIONS:
jobnr. mode duration  R 1  R 2  R 3  R 4  E(W 1)  E(W 2)
------------------------------------------------------------------------
  0      1     0       0    0    0    0     0       0
  1      1     4       0    2    5    8     8      52
  2      1     4       0    7    7    6    28      52
  3      1     2       7    0   10    4    14      28
  4      1     1       0    4    8    7     4      15
  5      1     1       7    0    5    9     7      14
  6      1     4       0    6    8    7    24      60
  7      1     1       8    0    7    7     8      14
  8      1     1       6    0    8    7     6      15
  9      1     4       0    4    8    4    16      48
 10      1     4       6    0    5    9    24      56
 11      1     0       0    0    0    0     0       0
************************************************************************
RESOURCEAVAILABILITIES:
  R 1  R 2
   27   91
************************************************************************
RESOURCE LIMITS:
jobnr.  l(R 1)  u(R 1)  l(R 2)  u(R 2)
------------------------------------------------------------------------
  0        0       0       0       0
  1        1       2       7      13
  2        4       7       7      13
  3        4       7       7      14
  4        2       4       8      15
  5        4       7       8      14
  6        3       6       8      15
  7        4       8       8      14
  8        3       6       8      15
  9        2       4       6      12
 10        3       6       8      14
 11        0       0       0       0
************************************************************************
SCENARIOS:
------------------------------------------------------------------------
RESOURCE k = 1
s = 1: (0, 11, 39, 15, 6, 5, 20, 7, 8, 18, 30, 0)
s = 2: (0, 6, 22, 17, 3, 9, 23, 12, 4, 13, 28, 0)
s = 3: (0, 6, 40, 12, 3, 5, 20, 8, 11, 19, 18, 0)
s = 4: (0, 8, 22, 11, 4, 8, 18, 9, 4, 13, 33, 0)
s = 5: (0, 6, 32, 10, 4, 7, 34, 9, 6, 16, 30, 0)
s = 6: (0, 8, 35, 11, 4, 9, 37, 8, 5, 9, 30, 0)
s = 7: (0, 11, 20, 9, 7, 6, 21, 9, 7, 12, 28, 0)
s = 8: (0, 9, 26, 8, 7, 11, 28, 9, 6, 19, 28, 0)
s = 9: (0, 8, 31, 12, 4, 5, 32, 8, 9, 18, 32, 0)
s = 10: (0, 8, 29, 9, 4, 12, 33, 7, 5, 11, 28, 0)
s = 11: (0, 7, 41, 16, 5, 5, 20, 9, 5, 18, 18, 0)
s = 12: (0, 9, 50, 18, 5, 6, 16, 13, 11, 17, 18, 0)
s = 13: (0, 8, 31, 16, 6, 6, 26, 6, 6, 10, 21, 0)
s = 14: (0, 8, 40, 15, 6, 11, 30, 9, 6, 21, 24, 0)
s = 15: (0, 5, 31, 10, 5, 10, 19, 10, 7, 12, 17, 0)
s = 16: (0, 15, 25, 15, 6, 9, 27, 6, 7, 16, 24, 0)
s = 17: (0, 7, 32, 16, 5, 8, 13, 11, 5, 17, 16, 0)
s = 18: (0, 9, 40, 9, 5, 9, 21, 7, 5, 19, 24, 0)
s = 19: (0, 9, 23, 24, 5, 7, 18, 8, 11, 25, 18, 0)
s = 20: (0, 15, 31, 15, 4, 6, 22, 7, 8, 19, 22, 0)
s = 21: (0, 6, 26, 12, 3, 5, 26, 9, 8, 16, 18, 0)
s = 22: (0, 7, 27, 15, 5, 8, 32, 9, 8, 22, 23, 0)
s = 23: (0, 8, 21, 11, 3, 7, 17, 8, 5, 17, 16, 0)
s = 24: (0, 6, 21, 12, 5, 7, 15, 7, 8, 14, 22, 0)
s = 25: (0, 10, 27, 11, 4, 12, 25, 9, 4, 27, 22, 0)
s = 26: (0, 12, 37, 18, 4, 5, 24, 6, 6, 10, 26, 0)
s = 27: (0, 8, 18, 25, 3, 8, 16, 7, 7, 18, 20, 0)
s = 28: (0, 9, 25, 16, 4, 6, 17, 8, 9, 16, 25, 0)
s = 29: (0, 13, 30, 15, 4, 7, 21, 6, 4, 14, 27, 0)
s = 30: (0, 11, 19, 9, 4, 9, 22, 10, 7, 21, 28, 0)
s = 31: (0, 8, 22, 19, 4, 7, 30, 11, 5, 11, 31, 0)
s = 32: (0, 7, 33, 8, 4, 8, 25, 6, 6, 18, 26, 0)
s = 33: (0, 10, 30, 21, 5, 5, 15, 6, 7, 21, 28, 0)
s = 34: (0, 8, 17, 10, 6, 5, 15, 8, 7, 15, 18, 0)
s = 35: (0, 12, 29, 11, 4, 6, 24, 6, 6, 26, 29, 0)
s = 36: (0, 12, 21, 14, 4, 6, 20, 9, 8, 16, 21, 0)
s = 37: (0, 6, 35, 11, 4, 5, 18, 8, 9, 19, 23, 0)
s = 38: (0, 6, 25, 13, 6, 12, 30, 6, 9, 9, 20, 0)
s = 39: (0, 9, 19, 9, 4, 6, 36, 6, 8, 9, 26, 0)
s = 40: (0, 6, 36, 15, 3, 8, 14, 6, 4, 14, 35, 0)
s = 41: (0, 8, 19, 8, 7, 6, 21, 9, 8, 20, 29, 0)
s = 42: (0, 9, 26, 9, 4, 7, 23, 8, 6, 16, 20, 0)
s = 43: (0, 9, 34, 17, 6, 9, 21, 8, 6, 16, 26, 0)
s = 44: (0, 9, 31, 11, 3, 7, 23, 11, 6, 12, 29, 0)
s = 45: (0, 7, 20, 14, 7, 11, 34, 7, 5, 13, 26, 0)
s = 46: (0, 8, 31, 13, 6, 9, 25, 9, 5, 14, 33, 0)
s = 47: (0, 8, 32, 8, 5, 6, 21, 8, 4, 15, 27, 0)
s = 48: (0, 10, 54, 13, 7, 9, 20, 10, 8, 12, 20, 0)
s = 49: (0, 12, 36, 13, 4, 7, 18, 11, 5, 14, 23, 0)
s = 50: (0, 7, 22, 15, 3, 9, 34, 12, 7, 16, 31, 0)
s = 51: (0, 9, 22, 19, 5, 11, 26, 8, 7, 16, 29, 0)
s = 52: (0, 8, 27, 10, 5, 7, 34, 7, 5, 22, 18, 0)
s = 53: (0, 10, 36, 12, 3, 8, 28, 9, 5, 12, 17, 0)
s = 54: (0, 10, 41, 12, 3, 10, 23, 6, 7, 16, 19, 0)
s = 55: (0, 6, 27, 12, 5, 7, 24, 5, 7, 12, 16, 0)
s = 56: (0, 10, 27, 13, 3, 6, 19, 7, 11, 13, 23, 0)
s = 57: (0, 7, 18, 12, 4, 5, 37, 14, 8, 20, 34, 0)
s = 58: (0, 10, 26, 19, 5, 8, 22, 12, 8, 9, 32, 0)
s = 59: (0, 5, 27, 19, 4, 12, 16, 7, 5, 12, 19, 0)
s = 60: (0, 12, 24, 11, 5, 8, 20, 6, 8, 16, 26, 0)
s = 61: (0, 8, 24, 12, 5, 8, 26, 9, 8, 13, 21, 0)
s = 62: (0, 8, 20, 20, 5, 7, 36, 9, 6, 24, 14, 0)
s = 63: (0, 6, 15, 18, 4, 11, 20, 6, 5, 20, 43, 0)
s = 64: (0, 8, 23, 12, 5, 8, 30, 8, 5, 10, 21, 0)
s = 65: (0, 8, 27, 14, 4, 9, 23, 10, 5, 22, 14, 0)
s = 66: (0, 6, 39, 22, 3, 5, 15, 7, 6, 14, 33, 0)
s = 67: (0, 7, 34, 15, 5, 9, 26, 8, 7, 14, 25, 0)
s = 68: (0, 8, 22, 11, 5, 9, 18, 6, 7, 15, 22, 0)
s = 69: (0, 9, 27, 14, 4, 5, 25, 6, 6, 17, 22, 0)
s = 70: (0, 11, 28, 18, 6, 8, 17, 12, 6, 15, 18, 0)
s = 71: (0, 11, 20, 12, 6, 5, 38, 13, 7, 20, 28, 0)
s = 72: (0, 8, 27, 8, 7, 7, 27, 9, 6, 15, 26, 0)
s = 73: (0, 6, 43, 15, 3, 6, 29, 12, 7, 21, 27, 0)
s = 74: (0, 9, 32, 10, 3, 10, 29, 6, 5, 10, 31, 0)
s = 75: (0, 8, 26, 14, 4, 6, 27, 9, 6, 13, 18, 0)
s = 76: (0, 11, 36, 11, 6, 5, 29, 10, 5, 17, 29, 0)
s = 77: (0, 9, 37, 19, 3, 6, 29, 11, 4, 12, 14, 0)
s = 78: (0, 11, 29, 16, 4, 7, 18, 7, 7, 10, 29, 0)
s = 79: (0, 7, 33, 18, 7, 5, 26, 6, 6, 18, 16, 0)
s = 80: (0, 10, 25, 19, 3, 9, 16, 11, 8, 17, 26, 0)
s = 81: (0, 9, 35, 10, 4, 5, 16, 6, 8, 11, 19, 0)
s = 82: (0, 7, 26, 15, 3, 8, 19, 7, 7, 12, 21, 0)
s = 83: (0, 9, 28, 16, 4, 6, 35, 7, 5, 18, 22, 0)
s = 84: (0, 6, 23, 24, 4, 7, 25, 6, 5, 17, 28, 0)
s = 85: (0, 6, 31, 10, 3, 8, 21, 6, 9, 11, 22, 0)
s = 86: (0, 10, 36, 14, 4, 7, 21, 6, 4, 14, 21, 0)
s = 87: (0, 11, 38, 11, 3, 7, 32, 9, 10, 14, 23, 0)
s = 88: (0, 7, 33, 14, 7, 5, 36, 9, 4, 11, 28, 0)
s = 89: (0, 11, 35, 12, 6, 7, 28, 8, 6, 11, 37, 0)
s = 90: (0, 7, 27, 8, 5, 10, 35, 9, 6, 11, 17, 0)
s = 91: (0, 5, 32, 16, 4, 9, 37, 8, 11, 14, 24, 0)
s = 92: (0, 6, 28, 14, 4, 9, 19, 6, 7, 20, 18, 0)
s = 93: (0, 7, 19, 12, 4, 6, 33, 7, 5, 27, 30, 0)
s = 94: (0, 8, 25, 17, 4, 6, 17, 9, 10, 24, 15, 0)
s = 95: (0, 9, 40, 8, 5, 5, 27, 6, 9, 18, 39, 0)
s = 96: (0, 7, 23, 11, 3, 6, 28, 7, 7, 22, 21, 0)
s = 97: (0, 6, 27, 10, 3, 6, 25, 5, 4, 17, 23, 0)
s = 98: (0, 7, 31, 16, 3, 5, 20, 6, 7, 18, 26, 0)
s = 99: (0, 11, 26, 16, 4, 6, 19, 10, 8, 19, 21, 0)
s = 100: (0, 10, 35, 10, 3, 9, 27, 14, 5, 14, 30, 0)
s = 101: (0, 7, 35, 16, 3, 6, 29, 6, 7, 11, 25, 0)
s = 102: (0, 10, 35, 10, 5, 6, 26, 9, 9, 17, 21, 0)
s = 103: (0, 7, 51, 17, 6, 6, 24, 9, 6, 20, 18, 0)
s = 104: (0, 12, 19, 11, 4, 5, 26, 12, 6, 17, 35, 0)
s = 105: (0, 7, 17, 14, 3, 8, 20, 6, 7, 16, 20, 0)
s = 106: (0, 6, 41, 17, 4, 9, 31, 9, 8, 16, 27, 0)
s = 107: (0, 8, 21, 13, 5, 8, 26, 9, 5, 21, 21, 0)
s = 108: (0, 9, 25, 14, 7, 6, 25, 7, 9, 25, 31, 0)
s = 109: (0, 6, 27, 21, 4, 10, 26, 9, 7, 24, 24, 0)
s = 110: (0, 7, 28, 18, 3, 7, 18, 6, 5, 12, 16, 0)
s = 111: (0, 6, 20, 10, 4, 7, 19, 9, 7, 15, 32, 0)
s = 112: (0, 9, 29, 14, 4, 12, 35, 10, 10, 15, 31, 0)
s = 113: (0, 14, 22, 11, 3, 7, 25, 9, 7, 24, 18, 0)
s = 114: (0, 8, 18, 9, 5, 8, 27, 7, 6, 11, 26, 0)
s = 115: (0, 11, 25, 15, 4, 8, 18, 12, 6, 11, 31, 0)
s = 116: (0, 8, 33, 22, 3, 6, 16, 7, 9, 13, 22, 0)
s = 117: (0, 6, 42, 19, 5, 11, 18, 6, 6, 19, 23, 0)
s = 118: (0, 9, 38, 23, 4, 7, 22, 6, 9, 12, 24, 0)
s = 119: (0, 6, 25, 9, 3, 8, 18, 7, 5, 14, 29, 0)
s = 120: (0, 12, 43, 9, 5, 10, 15, 12, 8, 13, 25, 0)
s = 121: (0, 7, 20, 14, 4, 5, 23, 6, 5, 11, 18, 0)
s = 122: (0, 8, 35, 9, 5, 7, 32, 5, 7, 19, 20, 0)
s = 123: (0, 6, 38, 13, 4, 6, 27, 6, 5, 13, 15, 0)
s = 124: (0, 11, 27, 15, 5, 10, 27, 15, 6, 15, 22, 0)
s = 125: (0, 9, 28, 20, 3, 6, 20, 10, 7, 23, 23, 0)
s = 126: (0, 6, 33, 13, 3, 9, 23, 8, 7, 25, 38, 0)
s = 127: (0, 8, 31, 24, 5, 7, 36, 7, 8, 18, 19, 0)
s = 128: (0, 10, 35, 14, 6, 7, 23, 8, 10, 23, 32, 0)
s = 129: (0, 7, 23, 19, 4, 8, 29, 6, 8, 16, 36, 0)
s = 130: (0, 7, 37, 13, 4, 7, 19, 11, 6, 12, 30, 0)
s = 131: (0, 9, 30, 13, 5, 9, 22, 6, 11, 19, 37, 0)
s = 132: (0, 7, 44, 18, 6, 7, 35, 5, 7, 16, 36, 0)
s = 133: (0, 11, 37, 14, 5, 5, 32, 8, 7, 11, 27, 0)
s = 134: (0, 8, 20, 10, 4, 8, 33, 10, 5, 18, 17, 0)
s = 135: (0, 9, 37, 13, 5, 9, 28, 6, 10, 9, 16, 0)
s = 136: (0, 9, 25, 15, 4, 9, 15, 5, 5, 24, 15, 0)
s = 137: (0, 11, 45, 15, 4, 6, 18, 10, 9, 10, 31, 0)
s = 138: (0, 11, 31, 10, 5, 5, 16, 7, 6, 18, 22, 0)
s = 139: (0, 7, 17, 30, 7, 7, 14, 9, 6, 21, 16, 0)
s = 140: (0, 9, 34, 22, 4, 6, 24, 8, 7, 22, 22, 0)
s = 141: (0, 7, 21, 22, 4, 6, 23, 5, 7, 23, 19, 0)
s = 142: (0, 7, 24, 19, 5, 10, 23, 9, 7, 13, 16, 0)
s = 143: (0, 6, 16, 18, 4, 5, 22, 9, 4, 25, 18, 0)
s = 144: (0, 8, 28, 13, 4, 10, 31, 11, 8, 12, 18, 0)
s = 145: (0, 6, 31, 15, 4, 10, 24, 7, 6, 19, 30, 0)
s = 146: (0, 9, 22, 17, 5, 7, 28, 10, 5, 13, 30, 0)
s = 147: (0, 9, 22, 10, 7, 5, 21, 10, 6, 20, 19, 0)
s = 148: (0, 12, 28, 11, 3, 5, 19, 8, 9, 17, 27, 0)
s = 149: (0, 9, 29, 13, 3, 6, 31, 10, 7, 22, 19, 0)
s = 150: (0, 8, 34, 18, 4, 5, 22, 9, 5, 13, 21, 0)
s = 151: (0, 10, 25, 14, 5, 10, 21, 10, 9, 18, 30, 0)
s = 152: (0, 7, 46, 15, 6, 7, 17, 8, 5, 11, 30, 0)
s = 153: (0, 8, 16, 8, 6, 6, 26, 5, 9, 18, 27, 0)
s = 154: (0, 12, 22, 14, 3, 10, 24, 5, 7, 9, 31, 0)
s = 155: (0, 7, 21, 12, 4, 6, 24, 9, 6, 17, 22, 0)
s = 156: (0, 10, 34, 11, 5, 12, 30, 9, 6, 20, 21, 0)
s = 157: (0, 7, 22, 12, 3, 5, 17, 8, 6, 22, 15, 0)
s = 158: (0, 6, 20, 15, 5, 6, 38, 15, 4, 21, 28, 0)
s = 159: (0, 7, 33, 11, 3, 6, 40, 6, 8, 19, 18, 0)
s = 160: (0, 6, 25, 14, 4, 10, 43, 8, 4, 20, 17, 0)
s = 161: (0, 14, 24, 15, 5, 6, 27, 12, 7, 11, 19, 0)
s = 162: (0, 11, 25, 20, 3, 9, 29, 10, 8, 14, 24, 0)
s = 163: (0, 6, 30, 18, 4, 6, 25, 7, 5, 12, 22, 0)
s = 164: (0, 8, 45, 17, 4, 6, 18, 6, 6, 15, 35, 0)
s = 165: (0, 7, 25, 11, 6, 5, 19, 13, 10, 12, 25, 0)
s = 166: (0, 9, 35, 12, 5, 6, 14, 6, 6, 13, 31, 0)
s = 167: (0, 6, 28, 11, 4, 8, 22, 10, 5, 12, 21, 0)
s = 168: (0, 6, 24, 11, 5, 8, 29, 6, 6, 18, 35, 0)
s = 169: (0, 11, 18, 15, 4, 13, 24, 8, 6, 15, 18, 0)
s = 170: (0, 7, 49, 13, 5, 6, 31, 8, 6, 15, 20, 0)
s = 171: (0, 8, 21, 13, 7, 7, 18, 12, 8, 22, 25, 0)
s = 172: (0, 13, 34, 15, 4, 5, 22, 7, 6, 18, 23, 0)
s = 173: (0, 10, 39, 14, 4, 7, 32, 9, 4, 20, 23, 0)
s = 174: (0, 6, 39, 12, 3, 8, 18, 6, 5, 15, 17, 0)
s = 175: (0, 13, 39, 9, 3, 6, 21, 5, 5, 10, 32, 0)
s = 176: (0, 15, 35, 19, 6, 6, 32, 11, 4, 16, 23, 0)
s = 177: (0, 11, 24, 11, 4, 12, 25, 14, 4, 24, 31, 0)
s = 178: (0, 5, 31, 11, 4, 11, 15, 11, 8, 11, 33, 0)
s = 179: (0, 13, 20, 11, 4, 6, 18, 6, 9, 23, 22, 0)
s = 180: (0, 9, 41, 12, 4, 11, 23, 10, 9, 26, 19, 0)
s = 181: (0, 7, 19, 14, 5, 9, 20, 8, 7, 19, 28, 0)
s = 182: (0, 9, 21, 9, 5, 9, 25, 8, 6, 18, 31, 0)
s = 183: (0, 6, 17, 17, 5, 6, 35, 11, 6, 14, 25, 0)
s = 184: (0, 10, 18, 10, 5, 6, 30, 14, 5, 13, 27, 0)
s = 185: (0, 9, 23, 9, 5, 6, 39, 14, 8, 13, 33, 0)
s = 186: (0, 8, 33, 24, 4, 8, 17, 8, 7, 12, 28, 0)
s = 187: (0, 9, 37, 14, 5, 6, 16, 8, 8, 25, 20, 0)
s = 188: (0, 11, 26, 12, 7, 8, 30, 11, 7, 23, 28, 0)
s = 189: (0, 10, 19, 12, 3, 10, 23, 9, 9, 12, 21, 0)
s = 190: (0, 8, 22, 15, 4, 6, 20, 5, 10, 13, 20, 0)
s = 191: (0, 10, 22, 11, 5, 7, 19, 5, 5, 20, 22, 0)
s = 192: (0, 11, 30, 10, 5, 12, 32, 5, 5, 13, 23, 0)
s = 193: (0, 8, 31, 16, 5, 7, 22, 7, 7, 19, 17, 0)
s = 194: (0, 13, 18, 15, 6, 6, 15, 12, 7, 16, 24, 0)
s = 195: (0, 8, 26, 11, 3, 6, 17, 11, 7, 15, 26, 0)
s = 196: (0, 7, 22, 13, 3, 5, 32, 6, 7, 22, 17, 0)
s = 197: (0, 10, 20, 11, 4, 10, 18, 5, 5, 13, 28, 0)
s = 198: (0, 8, 32, 24, 4, 8, 31, 10, 6, 16, 35, 0)
s = 199: (0, 8, 36, 17, 4, 10, 23, 10, 6, 18, 24, 0)
s = 200: (0, 7, 24, 12, 3, 8, 24, 12, 8, 17, 21, 0)
------------------------------------------------------------------------
RESOURCE k = 2
s = 1: (0, 67, 72, 29, 22, 9, 49, 13, 20, 52, 69, 0)
s = 2: (0, 38, 40, 34, 11, 17, 56, 20, 9, 39, 64, 0)
s = 3: (0, 37, 73, 23, 11, 10, 48, 13, 26, 57, 41, 0)
s = 4: (0, 47, 40, 21, 14, 15, 44, 15, 10, 37, 77, 0)
s = 5: (0, 38, 59, 20, 12, 13, 83, 16, 15, 46, 68, 0)
s = 6: (0, 47, 64, 21, 14, 17, 92, 13, 12, 27, 69, 0)
s = 7: (0, 67, 37, 17, 27, 12, 53, 16, 17, 36, 66, 0)
s = 8: (0, 54, 49, 16, 26, 22, 70, 15, 15, 55, 66, 0)
s = 9: (0, 52, 57, 23, 13, 10, 78, 14, 22, 52, 75, 0)
s = 10: (0, 46, 54, 17, 14, 24, 82, 12, 12, 32, 64, 0)
s = 11: (0, 41, 76, 31, 18, 9, 49, 15, 12, 52, 41, 0)
s = 12: (0, 57, 93, 35, 16, 12, 40, 22, 26, 50, 42, 0)
s = 13: (0, 50, 58, 31, 20, 12, 65, 11, 15, 30, 49, 0)
s = 14: (0, 47, 73, 29, 20, 21, 75, 16, 15, 62, 56, 0)
s = 15: (0, 32, 56, 20, 17, 20, 47, 17, 17, 34, 38, 0)
s = 16: (0, 97, 45, 30, 22, 17, 66, 11, 18, 48, 56, 0)
s = 17: (0, 42, 59, 31, 17, 15, 32, 18, 11, 50, 38, 0)
s = 18: (0, 57, 73, 17, 17, 18, 51, 11, 12, 55, 55, 0)
s = 19: (0, 53, 43, 47, 16, 13, 45, 14, 27, 74, 42, 0)
s = 20: (0, 93, 57, 29, 13, 11, 55, 12, 19, 56, 51, 0)
s = 21: (0, 36, 47, 24, 12, 10, 63, 15, 20, 46, 42, 0)
s = 22: (0, 41, 50, 29, 17, 16, 80, 15, 19, 64, 52, 0)
s = 23: (0, 47, 39, 22, 11, 13, 43, 14, 13, 51, 37, 0)
s = 24: (0, 39, 39, 23, 16, 14, 36, 12, 20, 41, 52, 0)
s = 25: (0, 63, 50, 21, 15, 24, 61, 16, 8, 80, 50, 0)
s = 26: (0, 74, 67, 35, 14, 10, 60, 10, 14, 29, 60, 0)
s = 27: (0, 47, 34, 49, 11, 16, 40, 12, 18, 53, 45, 0)
s = 28: (0, 54, 46, 32, 15, 12, 41, 14, 21, 46, 57, 0)
s = 29: (0, 81, 54, 30, 15, 14, 51, 10, 10, 40, 63, 0)
s = 30: (0, 68, 36, 17, 15, 18, 53, 16, 17, 62, 64, 0)
s = 31: (0, 49, 41, 37, 14, 14, 73, 19, 13, 33, 72, 0)
s = 32: (0, 46, 61, 16, 13, 15, 61, 9, 14, 54, 60, 0)
s = 33: (0, 60, 56, 42, 19, 10, 37, 10, 16, 63, 64, 0)
s = 34: (0, 51, 30, 19, 20, 10, 36, 14, 16, 43, 42, 0)
s = 35: (0, 73, 53, 21, 12, 12, 59, 11, 14, 76, 67, 0)
s = 36: (0, 78, 39, 28, 12, 12, 49, 15, 20, 46, 49, 0)
s = 37: (0, 35, 65, 22, 15, 10, 45, 14, 22, 57, 54, 0)
s = 38: (0, 38, 46, 26, 22, 23, 75, 11, 22, 27, 45, 0)
s = 39: (0, 58, 35, 17, 14, 11, 88, 11, 19, 25, 60, 0)
s = 40: (0, 35, 67, 30, 11, 16, 35, 10, 10, 41, 81, 0)
s = 41: (0, 48, 35, 16, 25, 11, 51, 16, 20, 60, 66, 0)
s = 42: (0, 56, 48, 17, 12, 14, 58, 14, 14, 47, 47, 0)
s = 43: (0, 57, 63, 33, 23, 18, 51, 13, 13, 48, 61, 0)
s = 44: (0, 53, 58, 21, 11, 14, 58, 19, 15, 35, 67, 0)
s = 45: (0, 42, 38, 28, 26, 22, 84, 12, 11, 38, 59, 0)
s = 46: (0, 47, 56, 25, 22, 17, 61, 15, 12, 40, 77, 0)
s = 47: (0, 50, 59, 15, 17, 12, 52, 14, 9, 45, 62, 0)
s = 48: (0, 62, 101, 26, 24, 17, 49, 18, 19, 36, 45, 0)
s = 49: (0, 78, 67, 26, 15, 13, 45, 19, 11, 40, 53, 0)
s = 50: (0, 43, 41, 30, 10, 18, 85, 20, 16, 47, 72, 0)
s = 51: (0, 55, 41, 37, 17, 22, 65, 13, 18, 47, 67, 0)
s = 52: (0, 47, 49, 19, 17, 13, 84, 11, 13, 66, 40, 0)
s = 53: (0, 64, 66, 23, 11, 15, 69, 15, 12, 36, 39, 0)
s = 54: (0, 61, 75, 24, 12, 19, 57, 11, 18, 47, 43, 0)
s = 55: (0, 39, 50, 23, 18, 14, 59, 9, 18, 36, 37, 0)
s = 56: (0, 63, 50, 26, 11, 11, 46, 12, 26, 39, 53, 0)
s = 57: (0, 43, 32, 23, 12, 10, 91, 24, 18, 58, 78, 0)
s = 58: (0, 60, 49, 38, 16, 16, 55, 20, 18, 26, 74, 0)
s = 59: (0, 33, 49, 37, 14, 24, 40, 12, 12, 36, 44, 0)
s = 60: (0, 78, 45, 21, 19, 15, 49, 9, 20, 47, 61, 0)
s = 61: (0, 51, 43, 24, 17, 15, 65, 16, 18, 37, 49, 0)
s = 62: (0, 49, 37, 39, 17, 14, 90, 15, 13, 70, 32, 0)
s = 63: (0, 38, 28, 36, 14, 21, 49, 10, 11, 60, 101, 0)
s = 64: (0, 47, 42, 23, 16, 15, 74, 13, 12, 29, 48, 0)
s = 65: (0, 49, 49, 27, 15, 17, 58, 16, 11, 65, 31, 0)
s = 66: (0, 36, 71, 44, 10, 10, 36, 11, 13, 41, 77, 0)
s = 67: (0, 40, 62, 29, 17, 17, 64, 14, 18, 42, 57, 0)
s = 68: (0, 47, 41, 22, 18, 17, 44, 11, 17, 43, 51, 0)
s = 69: (0, 57, 49, 28, 13, 10, 63, 11, 14, 50, 51, 0)
s = 70: (0, 67, 52, 35, 22, 15, 42, 20, 15, 44, 41, 0)
s = 71: (0, 66, 36, 24, 20, 10, 93, 22, 16, 58, 65, 0)
s = 72: (0, 52, 49, 16, 25, 13, 67, 15, 14, 44, 60, 0)
s = 73: (0, 39, 79, 29, 9, 12, 71, 20, 18, 62, 63, 0)
s = 74: (0, 56, 59, 20, 9, 19, 73, 11, 12, 29, 71, 0)
s = 75: (0, 49, 47, 27, 15, 12, 66, 15, 14, 37, 42, 0)
s = 76: (0, 66, 67, 22, 22, 9, 72, 16, 12, 51, 68, 0)
s = 77: (0, 57, 68, 38, 10, 11, 71, 18, 9, 34, 33, 0)
s = 78: (0, 71, 54, 31, 15, 14, 43, 12, 16, 29, 66, 0)
s = 79: (0, 40, 60, 35, 23, 10, 64, 10, 14, 52, 36, 0)
s = 80: (0, 59, 46, 37, 10, 17, 39, 20, 20, 50, 59, 0)
s = 81: (0, 54, 64, 20, 13, 9, 40, 9, 20, 33, 44, 0)
s = 82: (0, 40, 48, 29, 11, 16, 46, 13, 16, 34, 49, 0)
s = 83: (0, 56, 52, 32, 12, 12, 88, 12, 12, 54, 50, 0)
s = 84: (0, 35, 43, 47, 13, 13, 61, 10, 12, 50, 64, 0)
s = 85: (0, 39, 58, 20, 9, 16, 52, 11, 23, 33, 50, 0)
s = 86: (0, 60, 67, 28, 13, 13, 52, 11, 9, 40, 49, 0)
s = 87: (0, 67, 70, 22, 11, 14, 80, 15, 25, 41, 54, 0)
s = 88: (0, 44, 62, 28, 23, 10, 88, 15, 9, 31, 66, 0)
s = 89: (0, 67, 64, 24, 20, 14, 70, 13, 14, 32, 87, 0)
s = 90: (0, 42, 50, 16, 16, 19, 87, 15, 13, 31, 38, 0)
s = 91: (0, 31, 58, 31, 15, 17, 91, 14, 27, 41, 56, 0)
s = 92: (0, 34, 52, 28, 15, 17, 47, 10, 17, 60, 42, 0)
s = 93: (0, 42, 35, 23, 12, 11, 82, 13, 12, 80, 69, 0)
s = 94: (0, 52, 47, 34, 14, 12, 43, 16, 24, 72, 35, 0)
s = 95: (0, 59, 74, 16, 16, 10, 68, 11, 22, 52, 90, 0)
s = 96: (0, 43, 41, 22, 11, 11, 70, 12, 18, 66, 49, 0)
s = 97: (0, 36, 50, 20, 11, 12, 62, 9, 10, 51, 53, 0)
s = 98: (0, 46, 56, 32, 10, 10, 50, 10, 17, 54, 59, 0)
s = 99: (0, 70, 48, 32, 12, 12, 47, 17, 19, 55, 48, 0)
s = 100: (0, 61, 65, 19, 9, 17, 66, 23, 13, 41, 69, 0)
s = 101: (0, 44, 65, 32, 11, 11, 73, 10, 17, 33, 58, 0)
s = 102: (0, 61, 65, 20, 17, 12, 64, 16, 22, 49, 48, 0)
s = 103: (0, 42, 94, 34, 20, 12, 59, 15, 14, 58, 40, 0)
s = 104: (0, 74, 36, 22, 13, 9, 63, 20, 15, 50, 81, 0)
s = 105: (0, 42, 31, 28, 10, 16, 50, 10, 16, 48, 45, 0)
s = 106: (0, 38, 75, 33, 13, 18, 76, 16, 19, 46, 63, 0)
s = 107: (0, 46, 38, 25, 16, 16, 64, 15, 13, 62, 48, 0)
s = 108: (0, 53, 45, 28, 23, 11, 61, 11, 21, 73, 71, 0)
s = 109: (0, 38, 49, 41, 13, 20, 64, 16, 17, 71, 56, 0)
s = 110: (0, 43, 51, 36, 12, 13, 44, 11, 13, 36, 36, 0)
s = 111: (0, 34, 37, 19, 14, 13, 46, 15, 17, 44, 74, 0)
s = 112: (0, 57, 54, 27, 14, 23, 87, 17, 25, 45, 71, 0)
s = 113: (0, 90, 40, 22, 10, 14, 61, 16, 18, 71, 40, 0)
s = 114: (0, 51, 33, 17, 18, 15, 66, 11, 14, 31, 59, 0)
s = 115: (0, 71, 46, 30, 15, 16, 44, 21, 14, 31, 72, 0)
s = 116: (0, 47, 62, 43, 11, 12, 39, 11, 22, 39, 52, 0)
s = 117: (0, 38, 77, 37, 16, 22, 43, 11, 13, 55, 52, 0)
s = 118: (0, 54, 69, 45, 12, 13, 53, 10, 21, 35, 54, 0)
s = 119: (0, 36, 47, 18, 10, 16, 43, 11, 13, 42, 67, 0)
s = 120: (0, 72, 80, 17, 17, 19, 37, 21, 19, 37, 59, 0)
s = 121: (0, 43, 36, 27, 13, 9, 58, 10, 13, 31, 41, 0)
s = 122: (0, 51, 64, 18, 19, 14, 78, 9, 17, 55, 47, 0)
s = 123: (0, 34, 70, 26, 14, 11, 68, 9, 13, 38, 34, 0)
s = 124: (0, 68, 49, 29, 16, 19, 66, 26, 13, 44, 51, 0)
s = 125: (0, 59, 51, 39, 11, 11, 49, 17, 16, 68, 54, 0)
s = 126: (0, 37, 62, 26, 11, 18, 57, 13, 17, 73, 88, 0)
s = 127: (0, 47, 58, 48, 18, 14, 90, 11, 20, 54, 43, 0)
s = 128: (0, 62, 64, 28, 20, 14, 58, 14, 24, 67, 74, 0)
s = 129: (0, 45, 42, 37, 14, 15, 71, 9, 19, 47, 83, 0)
s = 130: (0, 43, 68, 25, 15, 14, 48, 19, 13, 36, 70, 0)
s = 131: (0, 58, 55, 26, 16, 17, 54, 9, 27, 56, 85, 0)
s = 132: (0, 42, 81, 35, 21, 13, 86, 9, 16, 47, 84, 0)
s = 133: (0, 68, 68, 27, 16, 10, 80, 14, 16, 32, 63, 0)
s = 134: (0, 52, 37, 20, 12, 16, 82, 17, 11, 53, 39, 0)
s = 135: (0, 54, 69, 25, 19, 18, 70, 11, 25, 25, 37, 0)
s = 136: (0, 58, 47, 30, 15, 18, 37, 9, 12, 71, 35, 0)
s = 137: (0, 68, 82, 30, 14, 12, 43, 17, 22, 30, 72, 0)
s = 138: (0, 70, 56, 20, 16, 10, 40, 12, 14, 52, 51, 0)
s = 139: (0, 45, 30, 59, 23, 13, 35, 16, 13, 63, 36, 0)
s = 140: (0, 56, 62, 43, 13, 11, 59, 14, 16, 65, 52, 0)
s = 141: (0, 42, 38, 43, 14, 11, 56, 9, 16, 67, 43, 0)
s = 142: (0, 44, 44, 38, 18, 19, 58, 15, 17, 37, 36, 0)
s = 143: (0, 37, 29, 35, 14, 10, 54, 15, 9, 74, 41, 0)
s = 144: (0, 52, 52, 26, 15, 20, 76, 19, 20, 36, 41, 0)
s = 145: (0, 34, 56, 29, 13, 20, 60, 12, 15, 56, 70, 0)
s = 146: (0, 53, 40, 33, 17, 14, 70, 16, 13, 37, 70, 0)
s = 147: (0, 56, 40, 19, 25, 10, 51, 18, 14, 59, 44, 0)
s = 148: (0, 75, 52, 22, 10, 10, 47, 14, 22, 49, 61, 0)
s = 149: (0, 55, 54, 26, 9, 12, 76, 16, 17, 64, 43, 0)
s = 150: (0, 49, 62, 36, 15, 10, 53, 16, 13, 39, 47, 0)
s = 151: (0, 59, 47, 27, 18, 20, 53, 17, 21, 52, 70, 0)
s = 152: (0, 42, 85, 29, 22, 14, 43, 13, 11, 32, 70, 0)
s = 153: (0, 47, 29, 16, 22, 11, 65, 9, 21, 54, 63, 0)
s = 154: (0, 77, 40, 27, 12, 19, 58, 9, 16, 27, 72, 0)
s = 155: (0, 43, 38, 24, 13, 12, 60, 15, 14, 50, 51, 0)
s = 156: (0, 63, 63, 22, 19, 24, 75, 16, 15, 59, 47, 0)
s = 157: (0, 42, 40, 24, 11, 10, 42, 14, 15, 64, 34, 0)
s = 158: (0, 39, 37, 29, 19, 11, 95, 26, 9, 63, 66, 0)
s = 159: (0, 46, 61, 21, 9, 11, 99, 10, 19, 56, 42, 0)
s = 160: (0, 38, 45, 28, 15, 19, 106, 14, 10, 59, 39, 0)
s = 161: (0, 85, 44, 30, 18, 11, 68, 20, 16, 32, 44, 0)
s = 162: (0, 70, 46, 40, 11, 18, 71, 18, 19, 41, 55, 0)
s = 163: (0, 35, 56, 36, 15, 12, 63, 12, 12, 36, 52, 0)
s = 164: (0, 46, 83, 34, 12, 12, 45, 10, 14, 44, 81, 0)
s = 165: (0, 40, 46, 21, 21, 9, 47, 22, 23, 34, 58, 0)
s = 166: (0, 53, 64, 23, 17, 12, 34, 10, 15, 38, 72, 0)
s = 167: (0, 37, 52, 22, 14, 16, 53, 18, 12, 35, 49, 0)
s = 168: (0, 35, 44, 22, 19, 16, 72, 10, 13, 54, 81, 0)
s = 169: (0, 70, 33, 29, 12, 25, 59, 13, 14, 43, 42, 0)
s = 170: (0, 41, 90, 25, 18, 12, 78, 14, 14, 43, 45, 0)
s = 171: (0, 49, 38, 25, 26, 13, 45, 21, 20, 65, 57, 0)
s = 172: (0, 83, 62, 30, 15, 10, 53, 12, 13, 54, 52, 0)
s = 173: (0, 63, 73, 28, 13, 14, 79, 15, 9, 59, 53, 0)
s = 174: (0, 35, 72, 24, 11, 15, 44, 10, 12, 43, 40, 0)
s = 175: (0, 81, 73, 17, 11, 11, 51, 9, 12, 29, 74, 0)
s = 176: (0, 92, 64, 38, 23, 11, 78, 18, 10, 47, 53, 0)
s = 177: (0, 67, 44, 22, 15, 24, 62, 24, 9, 71, 71, 0)
s = 178: (0, 30, 56, 21, 13, 21, 36, 18, 20, 32, 76, 0)
s = 179: (0, 84, 37, 21, 12, 11, 45, 9, 23, 67, 50, 0)
s = 180: (0, 53, 75, 23, 13, 22, 57, 17, 21, 76, 43, 0)
s = 181: (0, 41, 36, 27, 17, 17, 50, 14, 16, 55, 65, 0)
s = 182: (0, 55, 39, 17, 16, 18, 62, 13, 14, 52, 73, 0)
s = 183: (0, 38, 31, 33, 18, 11, 88, 20, 14, 42, 57, 0)
s = 184: (0, 60, 34, 19, 16, 12, 74, 23, 12, 37, 61, 0)
s = 185: (0, 56, 43, 17, 17, 11, 96, 24, 19, 39, 76, 0)
s = 186: (0, 46, 61, 48, 14, 15, 42, 14, 17, 36, 64, 0)
s = 187: (0, 53, 67, 28, 16, 12, 39, 14, 20, 73, 45, 0)
s = 188: (0, 67, 48, 23, 23, 15, 75, 19, 17, 67, 64, 0)
s = 189: (0, 65, 35, 23, 10, 19, 57, 16, 23, 36, 49, 0)
s = 190: (0, 50, 41, 30, 14, 11, 48, 8, 25, 37, 47, 0)
s = 191: (0, 60, 40, 22, 18, 13, 48, 8, 11, 59, 52, 0)
s = 192: (0, 71, 56, 20, 18, 23, 78, 9, 11, 39, 52, 0)
s = 193: (0, 49, 58, 32, 17, 14, 53, 12, 17, 56, 40, 0)
s = 194: (0, 84, 34, 30, 22, 11, 36, 20, 16, 46, 55, 0)
s = 195: (0, 46, 48, 22, 11, 11, 43, 18, 17, 45, 59, 0)
s = 196: (0, 40, 40, 25, 9, 9, 80, 9, 17, 66, 39, 0)
s = 197: (0, 64, 37, 22, 14, 19, 43, 9, 13, 37, 66, 0)
s = 198: (0, 51, 59, 47, 14, 16, 76, 17, 15, 47, 82, 0)
s = 199: (0, 52, 66, 33, 14, 19, 56, 17, 13, 54, 56, 0)
s = 200: (0, 43, 45, 23, 10, 16, 59, 20, 19, 50, 47, 0)
************************************************************************
ES/LS-VALUES:
jobnr.   ES(i)    LS(i)
------------------------------------------------------------------------
  0        0        0
  1        0       62
  2        0       69
  3        0       58
  4        7       70
  5        7       70
  6        4       63
  7        4       69
  8       11       77
  9        8       72
 10       11       71
 11       18       79
************************************************************************
BIG-M-VALUES:
M1 = 29, M2 = 155
************************************************************************
